Version identifier: 22.1.0.0 | 2022-03-09 | 1a383f8ce
CPXPARAM_Threads                                 1
CPXPARAM_MIP_Strategy_VariableSelect             3
CPXPARAM_TimeLimit                               599.99997112300002
1 of 1 MIP starts provided solutions.
MIP start 'm1' defined initial solution with objective 1.0000.
Tried aggregator 1 time.
MIP Presolve eliminated 13 rows and 0 columns.
MIP Presolve modified 1 coefficients.
Reduced MIP has 1411 rows, 5000 columns, and 65846 nonzeros.
Reduced MIP has 5000 binaries, 0 generals, 0 SOSs, and 0 indicators.
Presolve time = 0.05 sec. (32.89 ticks)
Probing time = 0.01 sec. (5.87 ticks)
Tried aggregator 1 time.
Detecting symmetries...
Reduced MIP has 1411 rows, 5000 columns, and 65846 nonzeros.
Reduced MIP has 5000 binaries, 0 generals, 0 SOSs, and 0 indicators.
Presolve time = 0.06 sec. (37.31 ticks)
Probing time = 0.01 sec. (5.87 ticks)
Clique table members: 799.
MIP emphasis: balance optimality and feasibility.
MIP search method: dynamic search.
Parallel mode: none, using 1 thread.
Root relaxation solution time = 0.87 sec. (794.39 ticks)

        Nodes                                         Cuts/
   Node  Left     Objective  IInf  Best Integer    Best Bound    ItCnt     Gap

*     0+    0                            1.0000     5000.0000              --- 
      0     0      200.0000   818        1.0000      200.0000     3667     --- 
*     0+    0                           75.0000      200.0000           166.67%
      0     0      200.0000   233       75.0000   ZeroHalf: 3     4951  166.67%
*     0+    0                          165.0000      200.0000            21.21%
*     0+    0                          173.0000      200.0000            15.61%
*     0+    0                          191.0000      200.0000             4.71%
      0     0        cutoff            191.0000      200.0000     4951    4.71%
Detecting symmetries...
      0     2      200.0000   124      191.0000      200.0000     4951    4.71%
Elapsed time = 11.65 sec. (12135.97 ticks, tree = 0.01 MB, solutions = 5)
      1     3      200.0000   555      191.0000      200.0000    11457    4.71%
      2     4      200.0000   569      191.0000      200.0000    14778    4.71%
      3     5      200.0000   530      191.0000      200.0000    15143    4.71%
      4     6      200.0000   515      191.0000      200.0000    15346    4.71%
      5     7      200.0000   517      191.0000      200.0000    15392    4.71%
      6     8      200.0000   572      191.0000      200.0000    18843    4.71%
      7     9      200.0000   503      191.0000      200.0000    19445    4.71%
      9    11      200.0000   552      191.0000      200.0000    22549    4.71%
     10    12      200.0000   506      191.0000      200.0000    22711    4.71%
     12    14      200.0000   483      191.0000      200.0000    24280    4.71%
Elapsed time = 20.49 sec. (21325.62 ticks, tree = 0.12 MB, solutions = 5)
     16    18      200.0000   442      191.0000      200.0000    24700    4.71%
     20    22      200.0000   502      191.0000      200.0000    26994    4.71%
     22    24      200.0000   392      191.0000      200.0000    28920    4.71%
     24    26      200.0000   507      191.0000      200.0000    33168    4.71%
     28    30      200.0000   364      191.0000      200.0000    33322    4.71%
     29    31      200.0000   500      191.0000      200.0000    37198    4.71%
     30    32      200.0000   329      191.0000      200.0000    41731    4.71%
     31    33      200.0000   341      191.0000      200.0000    45187    4.71%
     32    34      200.0000   404      191.0000      200.0000    47642    4.71%
     33    35      200.0000   403      191.0000      200.0000    50656    4.71%
Elapsed time = 32.80 sec. (33904.38 ticks, tree = 0.30 MB, solutions = 5)
     34    36      200.0000   388      191.0000      200.0000    53697    4.71%
     36    38      200.0000   350      191.0000      200.0000    57873    4.71%
     39    41      200.0000   334      191.0000      200.0000    58576    4.71%
     40    42      200.0000   363      191.0000      200.0000    61013    4.71%
     43    45      200.0000   294      191.0000      200.0000    62808    4.71%
     45    47      200.0000   277      191.0000      200.0000    65129    4.71%
     47    49      200.0000   325      191.0000      200.0000    70629    4.71%
     49    51      200.0000   272      191.0000      200.0000    74374    4.71%
     50    52      200.0000   234      191.0000      200.0000    78454    4.71%
     51    53      200.0000   255      191.0000      200.0000    83387    4.71%
Elapsed time = 49.10 sec. (50727.35 ticks, tree = 0.50 MB, solutions = 5)
     52    54      200.0000   300      191.0000      200.0000    86722    4.71%
     53    55      200.0000   231      191.0000      200.0000    91255    4.71%
     55    57      199.9950   500      191.0000      200.0000   101780    4.71%
     56    58      200.0000   211      191.0000      200.0000   106165    4.71%
     58    60      199.9977   471      191.0000      200.0000   112647    4.71%
     60    62      200.0000   191      191.0000      200.0000   116076    4.71%
     62    64      200.0000   126      191.0000      200.0000   123902    4.71%
     64    66      200.0000   111      191.0000      200.0000   133720    4.71%
     65    67      199.9142   473      191.0000      200.0000   139624    4.71%
     66    68      199.9785   449      191.0000      200.0000   145555    4.71%
Elapsed time = 64.91 sec. (66730.81 ticks, tree = 0.58 MB, solutions = 5)
     70    72      199.9142   409      191.0000      200.0000   147728    4.71%
     72    74      199.0000   483      191.0000      200.0000   151494    4.71%
     76    78      199.0000   435      191.0000      200.0000   154968    4.71%
     81    83      199.9785   397      191.0000      200.0000   155137    4.71%
     86    88      198.9487   409      191.0000      200.0000   158478    4.71%
     89    91      199.9776   472      191.0000      200.0000   162762    4.71%
     93    95      199.9776   394      191.0000      200.0000   164127    4.71%
     95    97      198.9487   353      191.0000      200.0000   168376    4.71%
     99   101      199.9552   387      191.0000      200.0000   170425    4.71%
    102   104      199.9552   388      191.0000      200.0000   172560    4.71%
Elapsed time = 77.38 sec. (79150.77 ticks, tree = 0.81 MB, solutions = 5)
    105   107      199.0000   358      191.0000      200.0000   174740    4.71%
    109   109      199.9552   443      191.0000      200.0000   177342    4.71%
    113   113      199.9552   442      191.0000      200.0000   178789    4.71%
    117   117      199.9462   402      191.0000      200.0000   180570    4.71%
    120   120      199.9014   404      191.0000      200.0000   182858    4.71%
    124   124      199.8879   346      191.0000      200.0000   184163    4.71%
    127   127      199.8879   363      191.0000      200.0000   187185    4.71%
    131   131      199.8655   371      191.0000      200.0000   188169    4.71%
    134   134      199.8655   376      191.0000      200.0000   189785    4.71%
    137   137      199.8655   349      191.0000      200.0000   192163    4.71%
Elapsed time = 88.99 sec. (90613.58 ticks, tree = 1.24 MB, solutions = 5)
    141   141      199.8655   298      191.0000      200.0000   193178    4.71%
    145   145      199.0000   316      191.0000      200.0000   194734    4.71%
    150   150      199.8523   286      191.0000      200.0000   195816    4.71%
    154   154      199.0000   296      191.0000      200.0000   200044    4.71%
    159   159      199.8446   294      191.0000      200.0000   201028    4.71%
    164   164      199.0000   294      191.0000      200.0000   203047    4.71%
    169   169      199.0000   316      191.0000      200.0000   205055    4.71%
    173   173      199.8160   341      191.0000      200.0000   206749    4.71%
    179   179      199.0000   275      191.0000      200.0000   207689    4.71%
    180   180      199.8040   336      191.0000      200.0000   207706    4.71%
Elapsed time = 100.53 sec. (101984.91 ticks, tree = 1.80 MB, solutions = 5)
    185   185      199.0000   295      191.0000      200.0000   209408    4.71%
    188   188      199.8040   350      191.0000      200.0000   211646    4.71%
    193   193      199.0000   290      191.0000      200.0000   212153    4.71%
    198   198      198.9444   280      191.0000      200.0000   215105    4.71%
    200   200      199.7864   324      191.0000      200.0000   215998    4.71%
    203   203      199.7543   358      191.0000      200.0000   219371    4.71%
    206   206      199.0000   326      191.0000      200.0000   222975    4.71%
    210   210      199.7509   356      191.0000      200.0000   224786    4.71%
    216   216      199.0000   227      191.0000      200.0000   226293    4.71%
    220   220      199.7476   339      191.0000      200.0000   226308    4.71%
Elapsed time = 112.07 sec. (113221.18 ticks, tree = 2.32 MB, solutions = 5)
    226   226      199.7409   334      191.0000      200.0000   227618    4.71%
    230   230      199.7401   329      191.0000      200.0000   229753    4.71%
    234   234      199.0000   323      191.0000      200.0000   233879    4.71%
    240   240      199.7363   333      191.0000      200.0000   234482    4.71%
    243   243      199.7356   339      191.0000      200.0000   237863    4.71%
    247   247      198.7500   265      191.0000      200.0000   243027    4.71%
    254   253      198.7500   274      191.0000      200.0000   245289    4.71%
    258   257      199.7241   323      191.0000      200.0000   248068    4.71%
    263   262      199.4444   274      191.0000      200.0000   253110    4.71%
    269   268      198.6667   277      191.0000      200.0000   255856    4.71%
Elapsed time = 124.82 sec. (125601.59 ticks, tree = 2.95 MB, solutions = 5)
    273   272      199.7198   348      191.0000      200.0000   258136    4.71%
    280   279      198.0000   227      191.0000      200.0000   260651    4.71%
    284   283      198.6923   292      191.0000      200.0000   265048    4.71%
    288   287      199.7176   327      191.0000      200.0000   267323    4.71%
    292   290      199.7108   321      191.0000      200.0000   269682    4.71%
    296   293      199.7085   356      191.0000      200.0000   272815    4.71%
    300   297      198.4545   238      191.0000      200.0000   274894    4.71%
    304   301      199.7039   333      191.0000      200.0000   277242    4.71%
    308   305      199.0000   325      191.0000      200.0000   279578    4.71%
    319   314      199.0000   194      191.0000      200.0000   295282    4.71%
Elapsed time = 139.78 sec. (140093.29 ticks, tree = 3.55 MB, solutions = 5)
    331   325      198.0000   281      191.0000      200.0000   304884    4.71%
    340   334      199.3750   114      191.0000      200.0000   319903    4.71%
    346   338      199.1667   185      191.0000      200.0000   339712    4.71%
    354   342      199.0000   152      191.0000      200.0000   356601    4.71%
    360   344      198.0000    98      191.0000      200.0000   376238    4.71%
    370   354      198.0000   101      191.0000      200.0000   390744    4.71%
    389   363      198.0000    66      191.0000      200.0000   405301    4.71%
    398   366      200.0000   205      191.0000      200.0000   420583    4.71%
    402   370      200.0000   142      191.0000      200.0000   434106    4.71%
    407   375      199.9878   427      191.0000      200.0000   452271    4.71%
Elapsed time = 182.23 sec. (181267.54 ticks, tree = 4.33 MB, solutions = 5)
    411   379      199.9785   491      191.0000      200.0000   469107    4.71%
    418   386      199.9785   351      191.0000      200.0000   482331    4.71%
    432   400      199.9765   379      191.0000      200.0000   490938    4.71%
    445   413      199.9482   265      191.0000      200.0000   501017    4.71%
    455   423      199.0000   361      191.0000      200.0000   512165    4.71%
    470   438      199.0000   398      191.0000      200.0000   517982    4.71%
    483   451      199.8964   374      191.0000      200.0000   526714    4.71%
    497   465      199.8705   449      191.0000      200.0000   533771    4.71%
*   510+  476                          193.0000      200.0000             3.63%
*   510+  476                          194.0000      200.0000             3.09%
    510   478      199.0000   411      194.0000      200.0000   542356    3.09%
*   511+  473                          195.0000      200.0000             2.56%
    512   476      199.9785   292      195.0000      200.0000   550928    2.56%
Elapsed time = 232.89 sec. (229909.37 ticks, tree = 5.27 MB, solutions = 8)
*   513+  464                          197.0000      200.0000             1.52%
    518   471      199.9777   442      197.0000      200.0000   561519    1.52%
    541   494      199.9742   357      197.0000      200.0000   562419    1.52%
    570   523      199.9727   363      197.0000      200.0000   562736    1.52%
    595   547      199.9607   405      197.0000      200.0000   565664    1.52%
    617   569      199.9602   383      197.0000      200.0000   565817    1.52%

Performing restart 1

Repeating presolve.
Tried aggregator 1 time.
Reduced MIP has 1411 rows, 5000 columns, and 65846 nonzeros.
Reduced MIP has 5000 binaries, 0 generals, 0 SOSs, and 0 indicators.
Presolve time = 0.04 sec. (31.91 ticks)
Tried aggregator 1 time.
Reduced MIP has 1411 rows, 5000 columns, and 65846 nonzeros.
Reduced MIP has 5000 binaries, 0 generals, 0 SOSs, and 0 indicators.
Presolve time = 0.05 sec. (38.26 ticks)
Represolve time = 0.29 sec. (229.90 ticks)
    623     0      200.0000   709      197.0000       Cuts: 4   572561    1.52%
    623     0      200.0000   523      197.0000      Cuts: 24   574849    1.52%
    623     2      200.0000   108      197.0000      200.0000   574849    1.52%
    627     6      200.0000   288      197.0000      200.0000   586750    1.52%
    631    10      200.0000   424      197.0000      200.0000   605961    1.52%
    634    13      200.0000   422      197.0000      200.0000   617438    1.52%
    639    18      200.0000   566      197.0000      200.0000   630963    1.52%
Elapsed time = 288.59 sec. (286504.41 ticks, tree = 0.04 MB, solutions = 9)
    644    23      200.0000   522      197.0000      200.0000   641003    1.52%
    648    27      200.0000   435      197.0000      200.0000   656791    1.52%
    652    31      200.0000   343      197.0000      200.0000   668532    1.52%
    661    40      200.0000   228      197.0000      200.0000   678042    1.52%
    669    48      200.0000   183      197.0000      200.0000   687419    1.52%
    676    55      200.0000   227      197.0000      200.0000   700535    1.52%
    686    64      200.0000   160      197.0000      200.0000   712236    1.52%
    697    75      200.0000   141      197.0000      200.0000   723383    1.52%
    707    85      200.0000   223      197.0000      200.0000   734517    1.52%
    717    95      200.0000   179      197.0000      200.0000   749117    1.52%
Elapsed time = 330.15 sec. (326667.95 ticks, tree = 0.91 MB, solutions = 9)
    723   101      199.8827   241      197.0000      200.0000   758231    1.52%
    733   111      200.0000   158      197.0000      200.0000   775124    1.52%
    744   122      200.0000   160      197.0000      200.0000   791083    1.52%
    753   131      200.0000   191      197.0000      200.0000   810919    1.52%
    771   149      198.7778   263      197.0000      200.0000   823757    1.52%
    789   167      199.7848   274      197.0000      200.0000   829932    1.52%
    808   185      198.7437   210      197.0000      200.0000   836046    1.52%
    828   203      198.8776   244      197.0000      200.0000   844291    1.52%
    844   218      198.3333   157      197.0000      200.0000   858116    1.52%
    861   234      199.6786   254      197.0000      200.0000   868486    1.52%
Elapsed time = 388.91 sec. (379259.05 ticks, tree = 2.71 MB, solutions = 9)
    878   250      198.7778   216      197.0000      200.0000   880815    1.52%
    891   263      199.0000   120      197.0000      200.0000   892181    1.52%
    906   275      198.9662   103      197.0000      200.0000   906451    1.52%
    930   295      198.8000   125      197.0000      200.0000   915402    1.52%
    943   301      199.8938   273      197.0000      200.0000   930520    1.52%
    956   313      200.0000   199      197.0000      200.0000   945032    1.52%
    966   319      199.9032   295      197.0000      200.0000   965159    1.52%
    984   335      199.6182   212      197.0000      200.0000   977541    1.52%
   1016   353      199.4000   175      197.0000      200.0000   988417    1.52%
   1040   373      198.2750   217      197.0000      200.0000  1000034    1.52%
Elapsed time = 433.69 sec. (419608.00 ticks, tree = 4.26 MB, solutions = 9)
   1073   384      198.3676   227      197.0000      200.0000  1007982    1.52%
   1092   391      200.0000   235      197.0000      200.0000  1016189    1.52%
   1107   406      199.8803   242      197.0000      200.0000  1026729    1.52%
   1136   435      199.8325   296      197.0000      200.0000  1027304    1.52%
   1159   458      199.7213   249      197.0000      200.0000  1029665    1.52%
   1183   482      199.5930   227      197.0000      200.0000  1032888    1.52%
   1209   508      199.5424   255      197.0000      200.0000  1036048    1.52%
   1226   525      200.0000   248      197.0000      200.0000  1045183    1.52%
   1243   541      199.6770   216      197.0000      200.0000  1054620    1.52%
   1274   571      199.6148   221      197.0000      200.0000  1055488    1.52%
Elapsed time = 476.03 sec. (458835.70 ticks, tree = 6.88 MB, solutions = 9)
   1299   596      199.5472   231      197.0000      200.0000  1057464    1.52%
   1323   620      199.4000   237      197.0000      200.0000  1061262    1.52%
   1348   645      199.3077   201      197.0000      200.0000  1064809    1.52%
   1367   659      200.0000   193      197.0000      200.0000  1076605    1.52%
   1380   671      199.9131   290      197.0000      200.0000  1090139    1.52%
   1402   693      199.0000   241      197.0000      200.0000  1097412    1.52%
   1422   713      199.6176   192      197.0000      200.0000  1105068    1.52%
   1447   738      199.0000   242      197.0000      200.0000  1114350    1.52%
   1470   761      199.7647   188      197.0000      200.0000  1122942    1.52%
   1487   778      199.0000   176      197.0000      200.0000  1135640    1.52%
Elapsed time = 518.82 sec. (498692.61 ticks, tree = 9.57 MB, solutions = 9)
   1509   799      199.6392   192      197.0000      200.0000  1144093    1.52%
   1524   812      198.6667   137      197.0000      200.0000  1159908    1.52%
   1545   822      198.0000   115      197.0000      200.0000  1177371    1.52%
   1576   831      198.0000    43      197.0000      200.0000  1195970    1.52%
   1602   853      199.7066   192      197.0000      200.0000  1206271    1.52%
Starting limited solution polishing.
   1634   885      199.6316   195      197.0000      200.0000  1207263    1.52%
   1658   909      199.1566   225      197.0000      200.0000  1213034    1.52%
   1682   928      198.9124   243      197.0000      200.0000  1221839    1.52%
   1712   952      198.6237   245      197.0000      200.0000  1225844    1.52%
   1742   974      198.5614   252      197.0000      200.0000  1229106    1.52%
Elapsed time = 561.51 sec. (537432.09 ticks, tree = 12.14 MB, solutions = 9)
   1771   990      198.4400   128      197.0000      200.0000  1236759    1.52%
   1795  1007      199.5833   293      197.0000      200.0000  1244388    1.52%
   1823  1035      199.4118   188      197.0000      200.0000  1248541    1.52%
   1848  1047      199.8065   245      197.0000      200.0000  1259386    1.52%
   1877  1076      199.6423   230      197.0000      200.0000  1262026    1.52%
   1907  1106      199.5789   221      197.0000      200.0000  1263252    1.52%
   1933  1132      199.5725   224      197.0000      200.0000  1265950    1.52%
   1955  1152      198.0000   111      197.0000      200.0000  1275197    1.52%

Clique cuts applied:  3
Zero-half cuts applied:  7

Root node processing (before b&c):
  Real time             =   11.59 sec. (12080.52 ticks)
Sequential b&c:
  Real time             =  588.41 sec. (560386.60 ticks)
                          ------------
Total (root+branch&cut) =  600.00 sec. (572467.12 ticks)
Primal:	197
Dual:	200
Status:	Feasible
Time:	600
Sequence:
	23
	9
	14
	7
	21
	1
	19
	12
	14
	7
	23
	0
	18
	12
	14
	7
	23
	0
	18
	3
	18
	7
	4
	18
	7
	5
	18
	8
	14
	10
	7
	14
	12
	8
	16
	10
	7
	16
	11
	7
	16
	10
	18
	2
	21
	7
	16
	10
	9
	14
	10
	16
	7
	20
	3
	18
	7
	5
	18
	7
	6
	18
	7
	14
	10
	7
	15
	7
	18
	3
	18
	7
	17
	7
	18
	3
	18
	8
	3
	18
	7
	3
	20
	7
	14
	10
	14
	9
	14
	5
	7
	18
	3
	7
	20
	5
	18
	7
	3
	20
	7
	5
	18
	7
	14
	9
	18
	5
	18
	7
	15
	12
	7
	14
	12
	18
	2
	21
	7
	14
	12
	18
	1
	21
	8
	16
	7
	21
	1
	19
	12
	14
	7
	21
	2
	18
	12
	14
	7
	21
	1
	19
	10
	14
	7
	23
	1
	19
	10
	14
	7
	21
	2
	18
	10
	16
	7
	22
	1
	18
	10
	16
	8
	21
	1
	18
	10
	15
	7
	10
	14
	7
	24
	1
	18
	10
	14
	9
	12
	14
	7
	10
	15
	7
	12
	14
	7
	13
	14
	7
	21
	1
	19
	10
	16
	7
	21
